(declare-const d Real)
(assert (< 0 d))
(declare-const c Real)
(assert (< 0 c))
(declare-const b Real)
(assert (< 0 b))
(declare-const a Real)
(assert (< 0 a))
(assert (not (and (<= 1 (+ (+ (+ (/ a (+ (+ a b) d)) (/ b (+ (+ a b) c))) (/ c (+ (+ b c) d))) (/ d (+ (+ a c) d)))) (<= (+ (+ (+ (/ a (+ (+ a b) d)) (/ b (+ (+ a b) c))) (/ c (+ (+ b c) d))) (/ d (+ (+ a c) d))) 2))))
(check-sat)
(get-model)
(exit)